889.27 0
0 79 77 73 70 71 76 78 81 0
0 75 2 4 6 9 11 8 7 3 5 0
0 59 60 58 56 53 54 57 55 0
0 32 33 31 35 37 38 39 36 34 0
0 13 17 18 19 15 16 14 12 10 0
0 43 47 49 52 50 51 48 46 45 44 42 40 41 69 0
0 67 65 63 62 74 80 72 61 64 68 66 0
0 98 96 95 94 92 93 97 100 99 1 0
0 91 89 88 85 84 82 83 86 87 90 0
0 20 22 25 24 27 29 30 28 26 23 21 0